100
128
29
2
6
62
9
13
11
25
25
17
19
24
2
6
44
17
8
46
4
13
13
13
40
1
9
9
13
43
3
50
32
17
22
63
1
46
19
2
50
35
14
58
61
40
46
56
3
45
49
2
57
49
1
38
59
22
63
26
52
59
52
11
29
12
37
44
32
43
39
47
2
34
64
4
53
6
1
58
34
64
42
5
1
46
41
54
15
42
63
32
52
4
63
13
6
6
1
41
14
64